60

 0   1   2   3   1   2   3   4   2   3   4   5   3   4   5   6   4   5   6   7   5   6   7   8   6   7   8   9   7   8   9  10   8   9  10  11   9  10  11  12  10  11  12  13  11  12  13  14  12  13  14  15  13  14  15  16  14  15  16  17  
 1   0   1   2   2   1   2   3   3   2   3   4   4   3   4   5   5   4   5   6   6   5   6   7   7   6   7   8   8   7   8   9   9   8   9  10  10   9  10  11  11  10  11  12  12  11  12  13  13  12  13  14  14  13  14  15  15  14  15  16  
 2   1   0   1   3   2   1   2   4   3   2   3   5   4   3   4   6   5   4   5   7   6   5   6   8   7   6   7   9   8   7   8  10   9   8   9  11  10   9  10  12  11  10  11  13  12  11  12  14  13  12  13  15  14  13  14  16  15  14  15  
 3   2   1   0   4   3   2   1   5   4   3   2   6   5   4   3   7   6   5   4   8   7   6   5   9   8   7   6  10   9   8   7  11  10   9   8  12  11  10   9  13  12  11  10  14  13  12  11  15  14  13  12  16  15  14  13  17  16  15  14  
 1   2   3   4   0   1   2   3   1   2   3   4   2   3   4   5   3   4   5   6   4   5   6   7   5   6   7   8   6   7   8   9   7   8   9  10   8   9  10  11   9  10  11  12  10  11  12  13  11  12  13  14  12  13  14  15  13  14  15  16  
 2   1   2   3   1   0   1   2   2   1   2   3   3   2   3   4   4   3   4   5   5   4   5   6   6   5   6   7   7   6   7   8   8   7   8   9   9   8   9  10  10   9  10  11  11  10  11  12  12  11  12  13  13  12  13  14  14  13  14  15  
 3   2   1   2   2   1   0   1   3   2   1   2   4   3   2   3   5   4   3   4   6   5   4   5   7   6   5   6   8   7   6   7   9   8   7   8  10   9   8   9  11  10   9  10  12  11  10  11  13  12  11  12  14  13  12  13  15  14  13  14  
 4   3   2   1   3   2   1   0   4   3   2   1   5   4   3   2   6   5   4   3   7   6   5   4   8   7   6   5   9   8   7   6  10   9   8   7  11  10   9   8  12  11  10   9  13  12  11  10  14  13  12  11  15  14  13  12  16  15  14  13  
 2   3   4   5   1   2   3   4   0   1   2   3   1   2   3   4   2   3   4   5   3   4   5   6   4   5   6   7   5   6   7   8   6   7   8   9   7   8   9  10   8   9  10  11   9  10  11  12  10  11  12  13  11  12  13  14  12  13  14  15  
 3   2   3   4   2   1   2   3   1   0   1   2   2   1   2   3   3   2   3   4   4   3   4   5   5   4   5   6   6   5   6   7   7   6   7   8   8   7   8   9   9   8   9  10  10   9  10  11  11  10  11  12  12  11  12  13  13  12  13  14  
 4   3   2   3   3   2   1   2   2   1   0   1   3   2   1   2   4   3   2   3   5   4   3   4   6   5   4   5   7   6   5   6   8   7   6   7   9   8   7   8  10   9   8   9  11  10   9  10  12  11  10  11  13  12  11  12  14  13  12  13  
 5   4   3   2   4   3   2   1   3   2   1   0   4   3   2   1   5   4   3   2   6   5   4   3   7   6   5   4   8   7   6   5   9   8   7   6  10   9   8   7  11  10   9   8  12  11  10   9  13  12  11  10  14  13  12  11  15  14  13  12  
 3   4   5   6   2   3   4   5   1   2   3   4   0   1   2   3   1   2   3   4   2   3   4   5   3   4   5   6   4   5   6   7   5   6   7   8   6   7   8   9   7   8   9  10   8   9  10  11   9  10  11  12  10  11  12  13  11  12  13  14  
 4   3   4   5   3   2   3   4   2   1   2   3   1   0   1   2   2   1   2   3   3   2   3   4   4   3   4   5   5   4   5   6   6   5   6   7   7   6   7   8   8   7   8   9   9   8   9  10  10   9  10  11  11  10  11  12  12  11  12  13  
 5   4   3   4   4   3   2   3   3   2   1   2   2   1   0   1   3   2   1   2   4   3   2   3   5   4   3   4   6   5   4   5   7   6   5   6   8   7   6   7   9   8   7   8  10   9   8   9  11  10   9  10  12  11  10  11  13  12  11  12  
 6   5   4   3   5   4   3   2   4   3   2   1   3   2   1   0   4   3   2   1   5   4   3   2   6   5   4   3   7   6   5   4   8   7   6   5   9   8   7   6  10   9   8   7  11  10   9   8  12  11  10   9  13  12  11  10  14  13  12  11  
 4   5   6   7   3   4   5   6   2   3   4   5   1   2   3   4   0   1   2   3   1   2   3   4   2   3   4   5   3   4   5   6   4   5   6   7   5   6   7   8   6   7   8   9   7   8   9  10   8   9  10  11   9  10  11  12  10  11  12  13  
 5   4   5   6   4   3   4   5   3   2   3   4   2   1   2   3   1   0   1   2   2   1   2   3   3   2   3   4   4   3   4   5   5   4   5   6   6   5   6   7   7   6   7   8   8   7   8   9   9   8   9  10  10   9  10  11  11  10  11  12  
 6   5   4   5   5   4   3   4   4   3   2   3   3   2   1   2   2   1   0   1   3   2   1   2   4   3   2   3   5   4   3   4   6   5   4   5   7   6   5   6   8   7   6   7   9   8   7   8  10   9   8   9  11  10   9  10  12  11  10  11  
 7   6   5   4   6   5   4   3   5   4   3   2   4   3   2   1   3   2   1   0   4   3   2   1   5   4   3   2   6   5   4   3   7   6   5   4   8   7   6   5   9   8   7   6  10   9   8   7  11  10   9   8  12  11  10   9  13  12  11  10  
 5   6   7   8   4   5   6   7   3   4   5   6   2   3   4   5   1   2   3   4   0   1   2   3   1   2   3   4   2   3   4   5   3   4   5   6   4   5   6   7   5   6   7   8   6   7   8   9   7   8   9  10   8   9  10  11   9  10  11  12  
 6   5   6   7   5   4   5   6   4   3   4   5   3   2   3   4   2   1   2   3   1   0   1   2   2   1   2   3   3   2   3   4   4   3   4   5   5   4   5   6   6   5   6   7   7   6   7   8   8   7   8   9   9   8   9  10  10   9  10  11  
 7   6   5   6   6   5   4   5   5   4   3   4   4   3   2   3   3   2   1   2   2   1   0   1   3   2   1   2   4   3   2   3   5   4   3   4   6   5   4   5   7   6   5   6   8   7   6   7   9   8   7   8  10   9   8   9  11  10   9  10  
 8   7   6   5   7   6   5   4   6   5   4   3   5   4   3   2   4   3   2   1   3   2   1   0   4   3   2   1   5   4   3   2   6   5   4   3   7   6   5   4   8   7   6   5   9   8   7   6  10   9   8   7  11  10   9   8  12  11  10   9  
 6   7   8   9   5   6   7   8   4   5   6   7   3   4   5   6   2   3   4   5   1   2   3   4   0   1   2   3   1   2   3   4   2   3   4   5   3   4   5   6   4   5   6   7   5   6   7   8   6   7   8   9   7   8   9  10   8   9  10  11  
 7   6   7   8   6   5   6   7   5   4   5   6   4   3   4   5   3   2   3   4   2   1   2   3   1   0   1   2   2   1   2   3   3   2   3   4   4   3   4   5   5   4   5   6   6   5   6   7   7   6   7   8   8   7   8   9   9   8   9  10  
 8   7   6   7   7   6   5   6   6   5   4   5   5   4   3   4   4   3   2   3   3   2   1   2   2   1   0   1   3   2   1   2   4   3   2   3   5   4   3   4   6   5   4   5   7   6   5   6   8   7   6   7   9   8   7   8  10   9   8   9  
 9   8   7   6   8   7   6   5   7   6   5   4   6   5   4   3   5   4   3   2   4   3   2   1   3   2   1   0   4   3   2   1   5   4   3   2   6   5   4   3   7   6   5   4   8   7   6   5   9   8   7   6  10   9   8   7  11  10   9   8  
 7   8   9  10   6   7   8   9   5   6   7   8   4   5   6   7   3   4   5   6   2   3   4   5   1   2   3   4   0   1   2   3   1   2   3   4   2   3   4   5   3   4   5   6   4   5   6   7   5   6   7   8   6   7   8   9   7   8   9  10  
 8   7   8   9   7   6   7   8   6   5   6   7   5   4   5   6   4   3   4   5   3   2   3   4   2   1   2   3   1   0   1   2   2   1   2   3   3   2   3   4   4   3   4   5   5   4   5   6   6   5   6   7   7   6   7   8   8   7   8   9  
 9   8   7   8   8   7   6   7   7   6   5   6   6   5   4   5   5   4   3   4   4   3   2   3   3   2   1   2   2   1   0   1   3   2   1   2   4   3   2   3   5   4   3   4   6   5   4   5   7   6   5   6   8   7   6   7   9   8   7   8  
10   9   8   7   9   8   7   6   8   7   6   5   7   6   5   4   6   5   4   3   5   4   3   2   4   3   2   1   3   2   1   0   4   3   2   1   5   4   3   2   6   5   4   3   7   6   5   4   8   7   6   5   9   8   7   6  10   9   8   7  
 8   9  10  11   7   8   9  10   6   7   8   9   5   6   7   8   4   5   6   7   3   4   5   6   2   3   4   5   1   2   3   4   0   1   2   3   1   2   3   4   2   3   4   5   3   4   5   6   4   5   6   7   5   6   7   8   6   7   8   9  
 9   8   9  10   8   7   8   9   7   6   7   8   6   5   6   7   5   4   5   6   4   3   4   5   3   2   3   4   2   1   2   3   1   0   1   2   2   1   2   3   3   2   3   4   4   3   4   5   5   4   5   6   6   5   6   7   7   6   7   8  
10   9   8   9   9   8   7   8   8   7   6   7   7   6   5   6   6   5   4   5   5   4   3   4   4   3   2   3   3   2   1   2   2   1   0   1   3   2   1   2   4   3   2   3   5   4   3   4   6   5   4   5   7   6   5   6   8   7   6   7  
11  10   9   8  10   9   8   7   9   8   7   6   8   7   6   5   7   6   5   4   6   5   4   3   5   4   3   2   4   3   2   1   3   2   1   0   4   3   2   1   5   4   3   2   6   5   4   3   7   6   5   4   8   7   6   5   9   8   7   6  
 9  10  11  12   8   9  10  11   7   8   9  10   6   7   8   9   5   6   7   8   4   5   6   7   3   4   5   6   2   3   4   5   1   2   3   4   0   1   2   3   1   2   3   4   2   3   4   5   3   4   5   6   4   5   6   7   5   6   7   8  
10   9  10  11   9   8   9  10   8   7   8   9   7   6   7   8   6   5   6   7   5   4   5   6   4   3   4   5   3   2   3   4   2   1   2   3   1   0   1   2   2   1   2   3   3   2   3   4   4   3   4   5   5   4   5   6   6   5   6   7  
11  10   9  10  10   9   8   9   9   8   7   8   8   7   6   7   7   6   5   6   6   5   4   5   5   4   3   4   4   3   2   3   3   2   1   2   2   1   0   1   3   2   1   2   4   3   2   3   5   4   3   4   6   5   4   5   7   6   5   6  
12  11  10   9  11  10   9   8  10   9   8   7   9   8   7   6   8   7   6   5   7   6   5   4   6   5   4   3   5   4   3   2   4   3   2   1   3   2   1   0   4   3   2   1   5   4   3   2   6   5   4   3   7   6   5   4   8   7   6   5  
10  11  12  13   9  10  11  12   8   9  10  11   7   8   9  10   6   7   8   9   5   6   7   8   4   5   6   7   3   4   5   6   2   3   4   5   1   2   3   4   0   1   2   3   1   2   3   4   2   3   4   5   3   4   5   6   4   5   6   7  
11  10  11  12  10   9  10  11   9   8   9  10   8   7   8   9   7   6   7   8   6   5   6   7   5   4   5   6   4   3   4   5   3   2   3   4   2   1   2   3   1   0   1   2   2   1   2   3   3   2   3   4   4   3   4   5   5   4   5   6  
12  11  10  11  11  10   9  10  10   9   8   9   9   8   7   8   8   7   6   7   7   6   5   6   6   5   4   5   5   4   3   4   4   3   2   3   3   2   1   2   2   1   0   1   3   2   1   2   4   3   2   3   5   4   3   4   6   5   4   5  
13  12  11  10  12  11  10   9  11  10   9   8  10   9   8   7   9   8   7   6   8   7   6   5   7   6   5   4   6   5   4   3   5   4   3   2   4   3   2   1   3   2   1   0   4   3   2   1   5   4   3   2   6   5   4   3   7   6   5   4  
11  12  13  14  10  11  12  13   9  10  11  12   8   9  10  11   7   8   9  10   6   7   8   9   5   6   7   8   4   5   6   7   3   4   5   6   2   3   4   5   1   2   3   4   0   1   2   3   1   2   3   4   2   3   4   5   3   4   5   6  
12  11  12  13  11  10  11  12  10   9  10  11   9   8   9  10   8   7   8   9   7   6   7   8   6   5   6   7   5   4   5   6   4   3   4   5   3   2   3   4   2   1   2   3   1   0   1   2   2   1   2   3   3   2   3   4   4   3   4   5  
13  12  11  12  12  11  10  11  11  10   9  10  10   9   8   9   9   8   7   8   8   7   6   7   7   6   5   6   6   5   4   5   5   4   3   4   4   3   2   3   3   2   1   2   2   1   0   1   3   2   1   2   4   3   2   3   5   4   3   4  
14  13  12  11  13  12  11  10  12  11  10   9  11  10   9   8  10   9   8   7   9   8   7   6   8   7   6   5   7   6   5   4   6   5   4   3   5   4   3   2   4   3   2   1   3   2   1   0   4   3   2   1   5   4   3   2   6   5   4   3  
12  13  14  15  11  12  13  14  10  11  12  13   9  10  11  12   8   9  10  11   7   8   9  10   6   7   8   9   5   6   7   8   4   5   6   7   3   4   5   6   2   3   4   5   1   2   3   4   0   1   2   3   1   2   3   4   2   3   4   5  
13  12  13  14  12  11  12  13  11  10  11  12  10   9  10  11   9   8   9  10   8   7   8   9   7   6   7   8   6   5   6   7   5   4   5   6   4   3   4   5   3   2   3   4   2   1   2   3   1   0   1   2   2   1   2   3   3   2   3   4  
14  13  12  13  13  12  11  12  12  11  10  11  11  10   9  10  10   9   8   9   9   8   7   8   8   7   6   7   7   6   5   6   6   5   4   5   5   4   3   4   4   3   2   3   3   2   1   2   2   1   0   1   3   2   1   2   4   3   2   3  
15  14  13  12  14  13  12  11  13  12  11  10  12  11  10   9  11  10   9   8  10   9   8   7   9   8   7   6   8   7   6   5   7   6   5   4   6   5   4   3   5   4   3   2   4   3   2   1   3   2   1   0   4   3   2   1   5   4   3   2  
13  14  15  16  12  13  14  15  11  12  13  14  10  11  12  13   9  10  11  12   8   9  10  11   7   8   9  10   6   7   8   9   5   6   7   8   4   5   6   7   3   4   5   6   2   3   4   5   1   2   3   4   0   1   2   3   1   2   3   4  
14  13  14  15  13  12  13  14  12  11  12  13  11  10  11  12  10   9  10  11   9   8   9  10   8   7   8   9   7   6   7   8   6   5   6   7   5   4   5   6   4   3   4   5   3   2   3   4   2   1   2   3   1   0   1   2   2   1   2   3  
15  14  13  14  14  13  12  13  13  12  11  12  12  11  10  11  11  10   9  10  10   9   8   9   9   8   7   8   8   7   6   7   7   6   5   6   6   5   4   5   5   4   3   4   4   3   2   3   3   2   1   2   2   1   0   1   3   2   1   2  
16  15  14  13  15  14  13  12  14  13  12  11  13  12  11  10  12  11  10   9  11  10   9   8  10   9   8   7   9   8   7   6   8   7   6   5   7   6   5   4   6   5   4   3   5   4   3   2   4   3   2   1   3   2   1   0   4   3   2   1  
14  15  16  17  13  14  15  16  12  13  14  15  11  12  13  14  10  11  12  13   9  10  11  12   8   9  10  11   7   8   9  10   6   7   8   9   5   6   7   8   4   5   6   7   3   4   5   6   2   3   4   5   1   2   3   4   0   1   2   3  
15  14  15  16  14  13  14  15  13  12  13  14  12  11  12  13  11  10  11  12  10   9  10  11   9   8   9  10   8   7   8   9   7   6   7   8   6   5   6   7   5   4   5   6   4   3   4   5   3   2   3   4   2   1   2   3   1   0   1   2  
16  15  14  15  15  14  13  14  14  13  12  13  13  12  11  12  12  11  10  11  11  10   9  10  10   9   8   9   9   8   7   8   8   7   6   7   7   6   5   6   6   5   4   5   5   4   3   4   4   3   2   3   3   2   1   2   2   1   0   1  
17  16  15  14  16  15  14  13  15  14  13  12  14  13  12  11  13  12  11  10  12  11  10   9  11  10   9   8  10   9   8   7   9   8   7   6   8   7   6   5   7   6   5   4   6   5   4   3   5   4   3   2   4   3   2   1   3   2   1   0  

 0   1   0   0   0   1   0   1   0   1   0  12   0   0   0   1   0   0   0  98   0   1   0   0   0   0   0   0   0   0   0   0   0   0  10  32   0  94   0   0   1   4  26   0  17   0  35  65   0   4   0   1   1   1   1   1   0   0   0  89  
12   0   0   0   0   1   0  42   1   1  82   0  64  30   1   1  15   0  48  10   1   1   7   0   1  18   0   3   3  14   0   0   0   0   0   0  99   7   1   0  77  85   0  10   0  14  22   0   0   0  49  10   0   0   3   1   0   0  44   0  
38   0   0   0   6   0   0   0   0  48   1  82   0   0  55   0   0  32   0   2   0  84  18   1   0   0   0   1   3   0  13  51   1   0   0   1   0   0   0   1   0   0   0   1  30   0   0   0   1   0   1   0   0   1   0   0  61   5   6   0  
 2   0   0   0   0  48  39   1   0   0   1  84   0   0  52   0  18  45   6   0   0   1  98   1   1   0   0   1  15  79   1   0   0   0  60   1   0   0   0   1   1   1   2   0  36   6   1   0   0   1   0   0   0   1   0   0  60   1   0   0  
 2   1   1   0   0   1   0   0   0   1  32  18   1  69  19   0   4   3   0   1  29  28   1   0  15   0   0   1   0   0  60   1  69   0   0   1   0   0   0  67   0   3   0   0  92   1   8   0  14   1  33   0   0   0   0   1   0   0   5   0  
 0   0   1   0   0   0   1   0   8   1   1  83   1  44   1   0   0  52   7   0   0   0   8   0   1   0  21   8   0   1   0   0   0  31  17  69  68   0   1   1  45   0   0   1  38   1   1   0   1   0   0   0   0   2   1   0   6   0   0   0  
 0   0   3   0   1   1   0   1  84   0   1   0   0   1   0   1   1   1   2   0   0   0  13   0   0   0   1   0   0   1  52   5   0   0   1   1   1   1   0  58   0   1   1   1   0   0  64   0   7  46  43   0  40   0   0   0   1  90   0   0  
 0  11  11   0   1   0   0   0   2   1   0  78   0   0   5   0   1   0   1   1   0   6   0   6   0   1   2   0  31   1   0   0   2   1  38   1   1   1   0   0  13   1   0  16   0   1   0   0   0   0   0   1   0  40   1   0  76   0   1   1  
 5  35   1   0   0   0  11   0   0   0   0  91   0   2  27   0   0   0  26   9  13   1   0   2   0   1   0   1   0   1   5   0  58   4   0   9   3   0   1   0   1   0   1   0  54  29   0   0   1   1   1   1  98   1  65   0   0   1   0   1  
19  18   0   1   0  98   0  80   1   0   1   0   1   0  29   0   0   1   1   0   0   0  12  68   2  30   0  47   0   7   1   1   0   0   0   0  38   0   0   1   1   1   0   0   0  22   1  35   1   0  31   5   0   0   1   0  62   4   8   0  
 0   1   0   1   0   0   0   1   0   0   0   0   0   1   0  55   1  66   1   1   1   0   0  36   1   1   0   1  54   1   0   0  18   0  13   0   0   9   1   0   0   4   0   0   0   0  10   5  16   0   1  17   1   0  20  39   1   0   1   0  
 0   1   0  29   8  17  12   0   0   1   0   0  44   0  10  23  39  32   1   0  13  32   0   0   3   3   0   0   1   1   0   0  12   0   0   0  41   0   2   0  15  27   0  70   0   0   0   1   1   0   1   1   0   1  30   1   0   1   1   0  
18   1   0   1  44   1   0   0   0   0   1   0   0  11   1   0   5   0  22  32   1   0   1  51   0  21  17   0  33   1   1  57   1   0   2   1   0   0  60   0   0   0   1  25   1   1   0   0   3   0   1   0   4   1   3   0   1   1   2   1  
64   0   6   0   0   0   0   0   1  34   0   0   0   0   1   2   0   4  55   8   0   0   1   7   5   0   1   0   0  25  42  12   0  33   1   0   1   1   1   0   0   1  12   2   1   0   1   1   1  27   0  33  53   0   0  53   8   1   6   0  
 0   3   0   0  29   0   1   1   8   1   0   0   0   0   0   0  49   1   1   1   0   3  63   0   0   0   0   0   0   1   5  67  51   0   0   0   1   1  61   1   0   3   0   0   1  10   1   1   1  95  23   0   1   0   0  81   0   6   1   0  
 0   9  10   0  10   0   0   0   1   0   0   0   0   6   1   0  87   0   0   1   1   0   0   0   1   3   0   0   2  85  10  40   1   1   0   0   0   8   0   0   0  95   1   1   0   1  12   3   0   1   0   0   0   1   0   0   0   1   2   0  
 3   0   1   4  65   0   1   5  14   5  75   0  27   0   1   0   0  73   0   1   0   0   1   1  26  97   0   0  21   2   0   1   0   0   4   7   1   2   0   0   1  29   0   0  92   0   1   0   1   3   3   1   0   0   0   0   0   1   1   2  
 0   0  35  11   1   1   1   0  66   0  14   1   0  70  39   0   0   0   0   0   0  50   0   0   0   3  44   0   2   1   0   4   4   0   1   0   0   2   0   1   9   0  32   0   1   3   0   0   1   0   0   6   0  33   0   1  19   1   0   0  
 0   0   1   0   1   0   1   1   0   0   0   1   0   0   0  11  22   1   0   1   0  14   0  42  17   1   0   1   0   1  19  84   1  11   5   0   5   4   0  28   0   1   1  53   1   1   1   1   1  34   0  49   1   0   1   2   0   0  31   0  
 1   0   1   0  12   9  50   0   0   1   0   1   1   6   0   0   1  60   4   0   1   0   1   1   4   0   0   0  78   0   0   3   1   1   1   0   1   1  11   3   2   1   0   0   1   0   3   0  13   0   0   0  26   0   1  80  12   3   0  88  
 7   1   0   0   1   0   1  85   0   0   0   0  54   1   0  43   0   0   1   0   0   1  36   1   2   0   0   0   0   2   0   1   0   1   0   0  34   0  33  98  28   0   0  44   0   0   1   1   0   0  44   0  51   0   4   4   3   0   0   0  
 1   1   0   0  47   7   1   0   1  28   1   1   0   1   0   1   1   0   1   1   0   0  37   1   3   1   1   0   1   0   0   1  34   0   0   1   0   0   1   1   0   0   0   0   1  10  69   1   1   1   3   1   0   0   0   0  11   3  35  69  
21   1   0   1   0  20   0   6  53   5   2   0   0   1   4   0   1   1   0   1   3   0   0   1  14   1   0  42  57  89   1   1   0   0   2   1   0   0  44   0   4   0   0   0  72   0   0   1   0   1   1   0   0   3   6  91   0   0   1   9  
 0   0  37   1   0   1   0   0   0   0   8  46   1   0   0   0   1   0   0   1   0   0   0   0   5   0   0   8   9   0   0   0   0   0   0   0   5   1   0  17   0   0   4   0   1   8   0  20   0   0   1   1   6   0  63  76  35   3   1   1  
46   0   0   0   1  35   0   1   3   1  11   4   0   0   1   0   1   0   0   0   0   1   1   0   0   1   1   0   1   1   6   0   1   0  22  10   0  44   2   1   1   7  13   2   0   0   1   0   0   0   3   0   0   0   0  43   3   0   2  24  
 0   5   0   0   1   0  96   1   0   1   6   1   0   1   0   0   0   1   1   0   0   0   5   1   1   0   4  82   1   0   0   0   0  73   0   0  22  51   1   1   0   1   1   0   0  12   0   1   1  44  84  27   0   1  25   6   0   1   0   0  
88   0  32   0   0  15   1   1   1   0   2   1   0   3   0   0   0  20   1  29   1   0  43   0   0   1   0   1   1   0   3   7  17  16  78   1   0  94   0  39   0  69   0   1   0   1   2   0   2   0   0   0   0   1  83   1   3  63   0  49  
 1   1   1  27  72  22   1   1   6   0   1   0  11   0   1   0   1   1   1   1  52   1  29  22  62   1   1   0  21   0  18   0  90  23   0  15   1  36   0   0   0   0   0  23   0   8   4   1   0   0   3   0   1   0   1  10   0  61   0   4  
 0   1   0  10   1   5  22   1   0   8   0  95   1  20   0   1   3   1   1   1   0   0   1   1   0   0  10   0   0   0   1   0   0   0  32  69   0   6   1   1   0   1   0   0   0   1   0   0   0   1   0   0   0   0   1  19   1   1   1   0  
 1   1   0   0   0  92   0  36   1   0  18   0   1   0   1   1   2   1   0   0  28   0  58   0   1   3   0  93   0   0   0   1   1  20   0   0   1   0   0   0   0  19   0   1   1   1   2   1   1  31   5   0   1   1   0   0   0   0   1   0  
98  51   4   0   0   0   0   0   0   1   7   1   0   1   0   0   3   0   1  55   1   0   0   1   1   0   0   1   1   1   0   0   0   5   1   0   0   0   1   1   6  28   1  30   1  69   0   0   1  27   3   1   0   0   0   1   0   0   0  35  
 1   1   0   0   0   1   1   6  76   1   2   0   2   6   1   2   1   0   0   0   0   0  73   0   1   0  99  60  26   0  12   0   1   0  37   1   3   0   1  18   0   4   1   1   0  10   0   4   1   2  53   0   0   0  39   0  43   1   1   6  
 0   0  59  23   0   0  26   0   0   0   1  46   1   1  47   0   7   0  31   0  59   1   0  31  83   0   0  24   1  31   0   1   0  11   0  14  13  41   1   1   0   0   1   1  93   0   0  92   1   0  39   0   0  62   0  16   0   1  50   1  
 1   0  57  10   0   1   0   1  39   1  46  43   0   0   5   0   0   0   1   0   0   0   1   0   1   1   0   1   1   1   1   2   0   0   1  66   0   1  20   0   9   0   0   1   1   0   7   0   0   0   1  18   0   0   5   0   0   0   0  31  
89   1  12   1   0   3   0   0  39   0   1   1   0   0   0   0   1   1   0   1   1  20   1   0   0  70   0   1  10   0   1   0   0   1   0  30  18   0   0   9  93   0   1  20   1   0  53  12   0   0   0   0   1  49   0   1   1   1   0   0  
 0  74   1   7  30   1  12   0   0   8   7   1   1   1   1   0   0   0   0   1   0  22   0  99   1   1   0  21   0   0   1   1   1  99  16   0   1   0   0   1   0   0   1   0   0   1  98   0  78   1   1  27   1  20   0  36   0   6   0  45  
 0  66   1   0   0  60   1   2   1   0   1  29   1   0  28   1   0   0   1   0   0   1   0   0   0   1   3   0  76  20   0   0   9   2   1   6   0   1   0  18  13  58   3   0   0   0   1   1   0   2   0  50   1   1   0   0   0  59   0   3  
 0   1  40   1   1   0   1  28   1   1   0   1   0   1   0   1   9   0   0   0   0   0   1   0   0   1   1   1   1   6   1   1  71   1   3  34   0   0   1   5  25   1   1  43   1   0   0   2   1   0   1   0   0   1   0   0   1   0   0   1  
30  45   2   0   0   0   1   0   0   0  16   5   0   1  62   1  82   0   1   7   2   1   1   0   0   0   0   1   0   0   0   1  23   0   0   0   1   1   0   0   0  21  28  24   0  15  12   2   1   0  36   0  11   1  32   1   1   0   1   4  
 1   1   0   0   0   0   0   0  27   1   0   1   0   0   0   0   0   1   0   0   0  29   0   1   0   0   0   8   3   0   1  59   0   0   0   9   0   0   1   0  81  10   1  87   1   0   1   0   1   0   2   1   1   0   1  18  35   0   0   1  
 0  82   0   7  76  14   0   0   0   0   8   0   0   1   1   0  54   1   0   1  61  75   0  10  99   1   0   1  92   0   0  28  13   0   0   1   0   1   9   0   0  12  23   1   0  35  32   0   1   0   0   0   0   1   0   0   0   1   0   0  
 0  38   1   0   1   1  18   0   0   0   0  61   0   0   0   0   7   0  11   1   0   0   1   0   0   1   2  16   0   1   2   1   1   2   0   3   0   1   1  11   3   0  33   0   5   0   3   1   0   1   1   0   0   0   2   0   1  12   1   1  
 0   0   0   1   1   0   0   0   0   1   5   1   1   1  12   0   0   1   9   0  11   0   1   1   0   0   0  37   0   0   9  26   0   0   0   0   0   0   1   0   0   0   0   0   0   0   0   0   0   1   2   0  20  14   1   1   8   8  27   0  
 1   0   0   1   1  40   0  68   1  63   6  73   0   1   6   0   0   1   0   1   0   1   0   0   0   0   0   1  63   0   0  25   0  65   0  30   4  91   0   1   1   2   0   0   0  13   0   2   3   0   0   0   0   0  21   1   0   1   1   1  
 1   0  18   0   0   0   0   0   0   1   1   1   3   2  36   1   0   5   6  84   0   0   0   1   1   0   0   0   0  69   1  66   4   1   0   0  73   0   0   2   0   1   0   1   0   0   0   0   0   3  19   1  99   1  24   0  17   0   1  94  
 1   0   0   0   0   0   0   1   0   1  32   7   5   0   1   0   0   0   0   1   0   0   0   1   0   0  10  69   3   0   0   1  37   6   1   0   0   0   1   4   0   1   0  15   1   0   0   1   3   0   3   0   1  20   0   1   0   6   1   3  
13   1   0   0   0   0   0   0   0   4  33   1   0   0   3   0  14   0   8   4   0   0   0   2   1   0   0   0  14  10   1   1   0   1   0   0   0  65   0   0  13   0   0   0   3   1   0   2   0   0   0   0  37  46   1   0  23   1   3   0  
 0   1   1   8   0   0   2  59   0   1   0   1  73   0   1   1   5   1   0   0  18  80   0   0   4   1   0  10   0   3  34   0   0   0   1  16   0   1   0   1   0  17   1   0   0  17   1   0   1   0   1   0   0   0   1   1   0   1  91  36  
 0   0   0   1   0   1   0   0   1   1  54   0   0   1  37   0   0  53   0   0   6   0   0   1   0   1   0   0   0   1   0   0   0   0   1   0   1   1   0   1  74  72   0   0   0   0   0   1   0   1   1  38   3  23  35   1   1   3  32   1  
 0   0   1   0  80   0   1   0   0   0  18   0   3   0   0   0   1   1   0  26   0   8   2  33   1   0   1  20   1  29   0   0   2  63   7   1  28   1   0   8   0   1   0  68   0   1   1   0   1   0   1   0   0   0  14   0   0   0   1   0  
15   0  94  84   0   1   0   0   1   0  20   0  13   1   0   1   1   1  31   0   1   0  39   9   0   0   1   1   0   1   1   1  32  35   2  18   0   0   0  36   1   4   1   1   0   0   0   0   0   0   0   1   1   0  12   0   3   1   1  87  
 0   1   0   0  16   0   1  32   0   7  67  94   0   0   0   1  27   0   0  54   1   1   0   5   0   0   1  14   0   0   1   0   1  12  67  62   0   1   1  75   0   8   1   0   8  33   8   0   1   0   0   0   0   0   0   1   0   1   1   1  
 0   1   2   0   0   2   1   0  92   1   0  58   0   0   0   0   0   1   4   2   1  53   1  97   0  41   1   0   0   5   0   0   0   0   0   2   0  80  17  40   1   0   1   0   0   1   5   5  56   1   0   0   0  96   0  37   0  19   4   0  
 6  75  49   0   0   0   0   0   0  34   0  57   0   0   1   1  20   0   2  72   0   0   1   0  83   0  88   1  14   0   1  11   0   1   0   0   0   0   0   0   0   0   0   0   0   0   1   1   1  36   1   0   0   0   0  27   0   0   1   0  
 0   5   0   0   1   3  33   1   5   0   1   0   0  22   0   5   0  94   0  13   0   4  28   0   1   0  12   1  13  11   3   0  12   0   1   0   1   0  10   1   0   0   0  10  24   0  74   0   0   0   0   1   1  12   0   8   0   0   0   1  
 0   0  62   1   1   1  31   0   0   0   0   1   0  43   1   0   0   0   0   1  49   0   1   0   0   0   0  49   0   0   1   0   0   2   1   1   0   0   0   0   1  40  15   0   1   5  17   0   0   1   1   2   0   1   0   0   1  11   0   1  
95   1   1  55   0   0   1   1   0   1   1   0   1   1  15  38  14   1   0   0  23   4   1   0   0   2  15   1   0   1   1   0   0   6   1   1   0   0   0  13   0   1  10   1   0  11   0   1  30   1   2   1   1   0   0   7   0   1  18   0  
 0   0   1  42   1   1   0   0   1   1   0  62   6   0   0   0  33   0   0  41  14   0  11   4   1   0   4   0   1   0  26   1   0   0   0   1   1   1   1   0   0   0   0   4   1   0   0   1   0   0  99   1   1   0  62   0  10   0   0   0  
83  22   0   1   1   0   0  96   0   0   0  40  71  24   0  12   1  89   0   0  14   0  11  65  12   4   0   1   0   0   1   0   0  30  30   1   0   0   1   0   0   1  63   0   8   0   1  29   0   0   0   0   6   0   1   0  31   0   0   0  
 0   1   0   0   0   0   2   4   0  81   1   0  14   1   0   0   0   0   1   0  10   0  77   4   1   0   0   0   1  67   6   1   1   0   1  64   0   1   0   0   0   0   0   0  85   1   0   0   1   8   0   0   0   1   0   0   1   1   0   0  
